\ LP format - for model browsing. Use MPS format to capture full model detail.
Minimize
  C36(1)
Subject To
 c0: B0(10) + B1(14) = 1
 c1: B2(8) + B3(12) = 1
 c2: B4(13) = 1
 c3: B5(12) = 1
 c4: B6(10) + B7(14) = 1
 c5: B8(8) + B9(12) = 1
 c6: - 1e+09 B0(10) + C26(10) <= 0
 c7: - 1e+09 B1(14) + C27(14) <= 0
 c8: - 1e+09 B2(8) + C28(10) <= 0
 c9: - 1e+09 B3(12) + C29(14) <= 0
 c10: - 1e+09 B4(13) + C30(13) <= 0
 c11: - 1e+09 B5(12) + C31(13) <= 0
 c12: - 1e+09 B6(10) + C32(10) <= 0
 c13: - 1e+09 B7(14) + C33(14) <= 0
 c14: - 1e+09 B8(8) + C34(10) <= 0
 c15: - 1e+09 B9(12) + C35(14) <= 0
 c16: - 54 B0(10) - 63 B1(14) - C26(10) - C27(14) + C28(10) + C29(14) >= 0
 c17: - 1.000000054e+09 B0(10) - 63 B1(14) - 1e+09 B2(8) - C26(10)
   - C27(14) + C28(10) + C29(14) >= -1.999999991e+09
 c18: - 54 B0(10) - 1.000000063e+09 B1(14) - 1e+09 B3(12) - C26(10)
   - C27(14) + C28(10) + C29(14) >= -1.999999989e+09
 c19: - 120 B4(13) - C30(13) + C31(13) >= 0
 c20: - 1.00000012e+09 B4(13) - 1e+09 B5(12) - C30(13) + C31(13)
   >= -1.999999989e+09
 c21: - 125 B6(10) - 135 B7(14) - C32(10) - C33(14) + C34(10) + C35(14)
   >= 0
 c22: - 1.000000125e+09 B6(10) - 135 B7(14) - 1e+09 B8(8) - C32(10)
   - C33(14) + C34(10) + C35(14) >= -1.999999991e+09
 c23: - 125 B6(10) - 1.000000135e+09 B7(14) - 1e+09 B9(12) - C32(10)
   - C33(14) + C34(10) + C35(14) >= -1.99999999e+09
 c24: - 1e+09 B1(14) - 1e+09 B4(13) - 1e+09 B10(2) + C27(14) - C30(13)
   >= -2.999999871e+09
 c25: - 1e+09 B1(14) - 1e+09 B4(13) + 1e+09 B10(2) - C27(14) + C30(13)
   >= -1.999999929e+09
 c26: - 1e+09 B1(14) - 1e+09 B5(12) - 1e+09 B11(2) + C27(14) - C31(13)
   >= -2.99999984e+09
 c27: - 1e+09 B1(14) - 1e+09 B5(12) + 1e+09 B11(2) - C27(14) + C31(13)
   >= -1.999999926e+09
 c28: - 1e+09 B0(10) - 1e+09 B6(10) - 1e+09 B12(2) + C26(10) - C32(10)
   >= -2.999999865e+09
 c29: - 1e+09 B0(10) - 1e+09 B6(10) + 1e+09 B12(2) - C26(10) + C32(10)
   >= -1.999999935e+09
 c30: - 1e+09 B1(14) - 1e+09 B7(14) - 1e+09 B13(2) + C27(14) - C33(14)
   >= -2.999999854e+09
 c31: - 1e+09 B1(14) - 1e+09 B7(14) + 1e+09 B13(2) - C27(14) + C33(14)
   >= -1.999999925e+09
 c32: - 1e+09 B0(10) - 1e+09 B8(8) - 1e+09 B14(2) + C26(10) - C34(10)
   >= -2.999999846e+09
 c33: - 1e+09 B0(10) - 1e+09 B8(8) + 1e+09 B14(2) - C26(10) + C34(10)
   >= -1.999999934e+09
 c34: - 1e+09 B1(14) - 1e+09 B9(12) - 1e+09 B15(2) + C27(14) - C35(14)
   >= -2.999999865e+09
 c35: - 1e+09 B1(14) - 1e+09 B9(12) + 1e+09 B15(2) - C27(14) + C35(14)
   >= -1.999999928e+09
 c36: - 1e+09 B3(12) - 1e+09 B4(13) - 1e+09 B16(2) + C29(14) - C30(13)
   >= -2.999999869e+09
 c37: - 1e+09 B3(12) - 1e+09 B4(13) + 1e+09 B16(2) - C29(14) + C30(13)
   >= -1.999999895e+09
 c38: - 1e+09 B3(12) - 1e+09 B5(12) - 1e+09 B17(2) + C29(14) - C31(13)
   >= -2.999999836e+09
 c39: - 1e+09 B3(12) - 1e+09 B5(12) + 1e+09 B17(2) - C29(14) + C31(13)
   >= -1.999999894e+09
 c40: - 1e+09 B2(8) - 1e+09 B6(10) - 1e+09 B18(2) + C28(10) - C32(10)
   >= -2.999999864e+09
 c41: - 1e+09 B2(8) - 1e+09 B6(10) + 1e+09 B18(2) - C28(10) + C32(10)
   >= -1.999999902e+09
 c42: - 1e+09 B3(12) - 1e+09 B7(14) - 1e+09 B19(2) + C29(14) - C33(14)
   >= -2.999999855e+09
 c43: - 1e+09 B3(12) - 1e+09 B7(14) + 1e+09 B19(2) - C29(14) + C33(14)
   >= -1.999999894e+09
 c44: - 1e+09 B2(8) - 1e+09 B8(8) - 1e+09 B20(2) + C28(10) - C34(10)
   >= -2.999999847e+09
 c45: - 1e+09 B2(8) - 1e+09 B8(8) + 1e+09 B20(2) - C28(10) + C34(10)
   >= -1.999999904e+09
 c46: - 1e+09 B3(12) - 1e+09 B9(12) - 1e+09 B21(2) + C29(14) - C35(14)
   >= -2.999999868e+09
 c47: - 1e+09 B3(12) - 1e+09 B9(12) + 1e+09 B21(2) - C29(14) + C35(14)
   >= -1.999999893e+09
 c48: - 1e+09 B4(13) - 1e+09 B7(14) - 1e+09 B22(2) + C30(13) - C33(14)
   >= -2.999999855e+09
 c49: - 1e+09 B4(13) - 1e+09 B7(14) + 1e+09 B22(2) - C30(13) + C33(14)
   >= -1.999999869e+09
 c50: - 1e+09 B4(13) - 1e+09 B9(12) - 1e+09 B23(2) + C30(13) - C35(14)
   >= -2.999999866e+09
 c51: - 1e+09 B4(13) - 1e+09 B9(12) + 1e+09 B23(2) - C30(13) + C35(14)
   >= -1.99999987e+09
 c52: - 1e+09 B5(12) - 1e+09 B7(14) - 1e+09 B24(2) + C31(13) - C33(14)
   >= -2.999999854e+09
 c53: - 1e+09 B5(12) - 1e+09 B7(14) + 1e+09 B24(2) - C31(13) + C33(14)
   >= -1.999999838e+09
 c54: - 1e+09 B5(12) - 1e+09 B9(12) - 1e+09 B25(2) + C31(13) - C35(14)
   >= -2.999999866e+09
 c55: - 1e+09 B5(12) - 1e+09 B9(12) + 1e+09 B25(2) - C31(13) + C35(14)
   >= -1.999999836e+09
 c56: C26(10) >= 0
 c57: C27(14) >= 0
 c58: C28(10) >= 0
 c59: C29(14) >= 0
 c60: C30(13) >= 0
 c61: C31(13) >= 0
 c62: C32(10) >= 0
 c63: C33(14) >= 0
 c64: C34(10) >= 0
 c65: C35(14) >= 0
 c66: - 54 B0(10) - 63 B1(14) - 87 B2(8) - 95 B3(12) - 120 B4(13)
   - 152 B5(12) - 125 B6(10) - 135 B7(14) - 143 B8(8) - 124 B9(12)
   - C26(10) - C27(14) - C28(10) - C29(14) - C30(13) - C31(13) - C32(10)
   - C33(14) - C34(10) - C35(14) + C36(1) = 0
Bounds
Binaries
 B0(10) B1(14) B2(8) B3(12) B4(13) B5(12) B6(10) B7(14) B8(8) B9(12) B10(2)
 B11(2) B12(2) B13(2) B14(2) B15(2) B16(2) B17(2) B18(2) B19(2) B20(2)
 B21(2) B22(2) B23(2) B24(2) B25(2)
End
